30
1 0 60
2 0 60
2 1 81
3 0 27
3 1 70
3 2 14
4 0 26
4 1 42
4 2 83
4 3 120
5 0 36
5 1 84
5 2 2
5 3 70
5 4 80
6 0 9
6 1 113
6 2 104
6 3 95
6 4 98
6 5 76
7 0 95
7 1 106
7 2 118
7 3 9
7 4 20
7 5 85
7 6 92
8 0 72
8 1 12
8 2 114
8 3 108
8 4 30
8 5 114
8 6 110
8 7 70
9 0 58
9 1 31
9 2 110
9 3 3
9 4 120
9 5 26
9 6 74
9 7 98
9 8 96
10 0 66
10 1 12
10 2 69
10 3 92
10 4 110
10 5 73
10 6 86
10 7 35
10 8 26
10 9 116
11 0 23
11 1 86
11 2 44
11 3 46
11 4 67
11 5 93
11 6 60
11 7 2
11 8 93
11 9 16
11 10 71
12 0 55
12 1 62
12 2 93
12 3 116
12 4 21
12 5 3
12 6 111
12 7 27
12 8 52
12 9 74
12 10 68
12 11 62
13 0 28
13 1 56
13 2 105
13 3 29
13 4 47
13 5 38
13 6 18
13 7 65
13 8 90
13 9 19
13 10 114
13 11 27
13 12 5
14 0 11
14 1 72
14 2 110
14 3 9
14 4 101
14 5 34
14 6 74
14 7 14
14 8 83
14 9 34
14 10 5
14 11 92
14 12 102
14 13 33
15 0 35
15 1 66
15 2 47
15 3 62
15 4 88
15 5 16
15 6 49
15 7 52
15 8 32
15 9 109
15 10 109
15 11 9
15 12 29
15 13 28
15 14 86
16 0 25
16 1 87
16 2 78
16 3 39
16 4 17
16 5 116
16 6 110
16 7 49
16 8 71
16 9 9
16 10 69
16 11 76
16 12 13
16 13 54
16 14 48
16 15 94
17 0 102
17 1 50
17 2 10
17 3 47
17 4 97
17 5 2
17 6 97
17 7 54
17 8 95
17 9 4
17 10 86
17 11 105
17 12 71
17 13 76
17 14 38
17 15 86
17 16 40
18 0 30
18 1 53
18 2 47
18 3 104
18 4 59
18 5 28
18 6 46
18 7 75
18 8 38
18 9 27
18 10 19
18 11 56
18 12 91
18 13 78
18 14 40
18 15 35
18 16 90
18 17 42
19 0 28
19 1 56
19 2 13
19 3 11
19 4 55
19 5 49
19 6 67
19 7 5
19 8 6
19 9 101
19 10 45
19 11 87
19 12 48
19 13 65
19 14 4
19 15 98
19 16 2
19 17 70
19 18 117
20 0 58
20 1 82
20 2 57
20 3 47
20 4 16
20 5 91
20 6 76
20 7 61
20 8 102
20 9 72
20 10 8
20 11 115
20 12 99
20 13 41
20 14 35
20 15 8
20 16 68
20 17 60
20 18 92
20 19 30
21 0 89
21 1 20
21 2 55
21 3 92
21 4 105
21 5 100
21 6 30
21 7 66
21 8 30
21 9 109
21 10 37
21 11 114
21 12 98
21 13 76
21 14 85
21 15 50
21 16 109
21 17 1
21 18 99
21 19 79
21 20 120
22 0 85
22 1 38
22 2 81
22 3 117
22 4 38
22 5 91
22 6 89
22 7 52
22 8 31
22 9 32
22 10 38
22 11 21
22 12 33
22 13 59
22 14 28
22 15 100
22 16 36
22 17 6
22 18 112
22 19 26
22 20 20
22 21 26
23 0 47
23 1 120
23 2 46
23 3 34
23 4 5
23 5 74
23 6 118
23 7 16
23 8 114
23 9 82
23 10 24
23 11 93
23 12 105
23 13 27
23 14 43
23 15 114
23 16 13
23 17 55
23 18 56
23 19 14
23 20 20
23 21 11
23 22 10
24 0 34
24 1 86
24 2 19
24 3 86
24 4 67
24 5 44
24 6 9
24 7 84
24 8 60
24 9 17
24 10 34
24 11 38
24 12 51
24 13 96
24 14 84
24 15 81
24 16 50
24 17 41
24 18 114
24 19 53
24 20 83
24 21 36
24 22 101
24 23 82
25 0 50
25 1 85
25 2 106
25 3 30
25 4 34
25 5 100
25 6 70
25 7 53
25 8 50
25 9 6
25 10 105
25 11 120
25 12 46
25 13 59
25 14 115
25 15 74
25 16 37
25 17 35
25 18 39
25 19 53
25 20 64
25 21 66
25 22 105
25 23 44
25 24 24
26 0 49
26 1 28
26 2 6
26 3 89
26 4 104
26 5 100
26 6 109
26 7 15
26 8 7
26 9 32
26 10 71
26 11 42
26 12 42
26 13 116
26 14 82
26 15 73
26 16 47
26 17 39
26 18 66
26 19 116
26 20 101
26 21 88
26 22 78
26 23 78
26 24 75
26 25 14
27 0 97
27 1 13
27 2 104
27 3 2
27 4 8
27 5 70
27 6 91
27 7 33
27 8 32
27 9 105
27 10 5
27 11 106
27 12 55
27 13 40
27 14 4
27 15 58
27 16 87
27 17 54
27 18 24
27 19 81
27 20 10
27 21 69
27 22 76
27 23 12
27 24 69
27 25 65
27 26 22
28 0 103
28 1 65
28 2 33
28 3 118
28 4 103
28 5 109
28 6 77
28 7 57
28 8 12
28 9 109
28 10 20
28 11 48
28 12 1
28 13 48
28 14 38
28 15 34
28 16 24
28 17 1
28 18 64
28 19 37
28 20 66
28 21 60
28 22 21
28 23 80
28 24 24
28 25 28
28 26 120
28 27 94
29 0 114
29 1 65
29 2 1
29 3 2
29 4 36
29 5 55
29 6 74
29 7 84
29 8 105
29 9 11
29 10 66
29 11 72
29 12 13
29 13 63
29 14 111
29 15 24
29 16 55
29 17 21
29 18 46
29 19 53
29 20 60
29 21 99
29 22 38
29 23 87
29 24 70
29 25 103
29 26 55
29 27 34
29 28 115
